c WARNING: for repeatability, setting FPU to use double precision
d VARIABLES            211614       
d CONSTRAINTS          919995       
c ============================[ Problem Statistics ]=============================
c |                                                                             |
c |  Number of variables:        211614                                         |
c |  Number of clauses:          919995                                         |
c |  Parse time:                   0.15 s                                       |
c |                                                                             |
c ============================[ Search Statistics ]==============================
c | Conflicts |          ORIGINAL         |          LEARNT          | Progress |
c |           |    Vars  Clauses Literals |    Limit  Clauses Lit/Cl |          |
c ===============================================================================
c |       100 |  174549   825157  2001751 |   302557      100      8 | 17.515 % |
c |       250 |  174549   825157  2001751 |   332813      250     36 | 17.515 % |
c |       475 |  174549   825157  2001751 |   366094      475     36 | 17.515 % |
c |       812 |  174549   825157  2001751 |   402704      812     45 | 17.515 % |
c |      1318 |  174549   825157  2001751 |   442974     1318     81 | 17.515 % |
c |      2077 |  174549   825157  2001751 |   487271     2077     88 | 17.515 % |
c |      3216 |  174549   825157  2001751 |   535999     3216    115 | 17.515 % |
c |      4924 |  174549   825157  2001751 |   589599     4924    109 | 17.515 % |
c |      7486 |  174549   825157  2001751 |   648559     7486    141 | 17.515 % |
c |     11330 |  174549   825157  2001751 |   713414    11330    135 | 17.515 % |
c |     17096 |  174549   825157  2001751 |   784756    17096    143 | 17.515 % |
c |     25745 |  174549   825157  2001751 |   863232    25745    145 | 17.515 % |
c |     38719 |  174549   825157  2001751 |   949555    38719    161 | 17.515 % |
c |     58180 |  174549   825157  2001751 |  1044510    58180    175 | 17.515 % |
c |     87372 |  174549   825157  2001751 |  1148961    87372    166 | 17.515 % |
c |    131161 |  174549   825157  2001751 |  1263858   131161    162 | 17.515 % |
c |    196845 |  174549   825157  2001751 |  1390243   196845    155 | 17.515 % |
c |    295371 |  174549   825157  2001751 |  1529268   295371    168 | 17.515 % |
c |    443160 |  174549   825157  2001751 |  1682195   443160    179 | 17.515 % |
c |    664843 |  174532   825072  2001547 |  1850414   664836    187 | 17.523 % |
c |    997368 |  174532   825072  2001547 |  2035456   997361    175 | 17.523 % |
c |   1496156 |  174532   825072  2001547 |  2239001  1496149    172 | 17.523 % |
c ===============================================================================
c restarts              : 3325
c conflicts             : 1741111        (971 /sec)
c decisions             : 5574002        (0.00 % random) (3108 /sec)
c propagations          : 5041276890     (2810784 /sec)
c conflict literals     : 292865003      (31.30 % deleted)
d RESTARTS             3325
d FAILURES             1741111      
d NODES                5574002      
d BACKTRACKS           5574002      
d PROPAGATIONS         5041276890   
d NOGOODSIZE           168.21 
d MEMORY               1617.00 
d TIME                 1793.55 

s UNKNOWN
